Using 12 cores
	Test naive model with N=10
%%%mzn-stat: solveTime=0.006448
%%%mzn-stat: failures=2
%%%mzn-stat: solveTime=0.00637
%%%mzn-stat: failures=2
%%%mzn-stat: solveTime=0.006441
%%%mzn-stat: failures=2
%%%mzn-stat: solveTime=0.006468
%%%mzn-stat: failures=2
%%%mzn-stat: solveTime=0.007334
%%%mzn-stat: failures=2
	Test dual model with N=10
%%%mzn-stat: solveTime=0.008192
%%%mzn-stat: failures=3
%%%mzn-stat: solveTime=0.008192
%%%mzn-stat: failures=3
%%%mzn-stat: solveTime=0.007748
%%%mzn-stat: failures=3
%%%mzn-stat: solveTime=0.009322
%%%mzn-stat: failures=3
%%%mzn-stat: solveTime=0.008666
%%%mzn-stat: failures=3
	Test final model with N=10
%%%mzn-stat: solveTime=0.008214
%%%mzn-stat: failures=2
%%%mzn-stat: solveTime=0.008184
%%%mzn-stat: failures=2
%%%mzn-stat: solveTime=0.0088
%%%mzn-stat: failures=2
%%%mzn-stat: solveTime=0.008068
%%%mzn-stat: failures=2
%%%mzn-stat: solveTime=0.010608
%%%mzn-stat: failures=2
	Test naive model with N=11
%%%mzn-stat: solveTime=0.008782
%%%mzn-stat: failures=424
%%%mzn-stat: solveTime=0.008113
%%%mzn-stat: failures=351
%%%mzn-stat: solveTime=0.008139
%%%mzn-stat: failures=351
%%%mzn-stat: solveTime=0.007883
%%%mzn-stat: failures=351
%%%mzn-stat: solveTime=0.00863
%%%mzn-stat: failures=351
	Test dual model with N=11
%%%mzn-stat: solveTime=0.042767
%%%mzn-stat: failures=315
%%%mzn-stat: solveTime=0.126943
%%%mzn-stat: failures=1320
%%%mzn-stat: solveTime=0.05829
%%%mzn-stat: failures=463
%%%mzn-stat: solveTime=0.056493
%%%mzn-stat: failures=486
%%%mzn-stat: solveTime=0.040005
%%%mzn-stat: failures=337
	Test final model with N=11
%%%mzn-stat: solveTime=0.01415
%%%mzn-stat: failures=19
%%%mzn-stat: solveTime=0.035317
%%%mzn-stat: failures=1064
%%%mzn-stat: solveTime=0.056479
%%%mzn-stat: failures=1527
%%%mzn-stat: solveTime=0.042499
%%%mzn-stat: failures=1392
%%%mzn-stat: solveTime=0.05146
%%%mzn-stat: failures=1146
	Test naive model with N=12
%%%mzn-stat: solveTime=0.007724
%%%mzn-stat: failures=103
%%%mzn-stat: solveTime=0.00758
%%%mzn-stat: failures=116
%%%mzn-stat: solveTime=0.009178
%%%mzn-stat: failures=977
%%%mzn-stat: solveTime=0.007658
%%%mzn-stat: failures=140
%%%mzn-stat: solveTime=0.007835
%%%mzn-stat: failures=85
	Test dual model with N=12
%%%mzn-stat: solveTime=0.135172
%%%mzn-stat: failures=556
%%%mzn-stat: solveTime=0.103234
%%%mzn-stat: failures=818
%%%mzn-stat: solveTime=0.231044
%%%mzn-stat: failures=1528
%%%mzn-stat: solveTime=0.173572
%%%mzn-stat: failures=1318
%%%mzn-stat: solveTime=0.08343
%%%mzn-stat: failures=625
	Test final model with N=12
%%%mzn-stat: solveTime=1.82227
%%%mzn-stat: failures=139872
%%%mzn-stat: solveTime=2.043
%%%mzn-stat: failures=143948
%%%mzn-stat: solveTime=2.53132
%%%mzn-stat: failures=213912
%%%mzn-stat: solveTime=2.91864
%%%mzn-stat: failures=222735
%%%mzn-stat: solveTime=2.32885
%%%mzn-stat: failures=164968
	Test naive model with N=13
%%%mzn-stat: solveTime=0.008235
%%%mzn-stat: failures=272
%%%mzn-stat: solveTime=0.008018
%%%mzn-stat: failures=252
%%%mzn-stat: solveTime=0.007918
%%%mzn-stat: failures=390
%%%mzn-stat: solveTime=0.008388
%%%mzn-stat: failures=492
%%%mzn-stat: solveTime=0.009391
%%%mzn-stat: failures=448
	Test dual model with N=13
%%%mzn-stat: solveTime=0.19707
%%%mzn-stat: failures=2185
%%%mzn-stat: solveTime=0.178225
%%%mzn-stat: failures=1950
%%%mzn-stat: solveTime=0.203302
%%%mzn-stat: failures=3046
%%%mzn-stat: solveTime=0.40827
%%%mzn-stat: failures=2436
%%%mzn-stat: solveTime=0.232111
%%%mzn-stat: failures=2583
	Test final model with N=13
%%%mzn-stat: solveTime=0.019743
%%%mzn-stat: failures=497
%%%mzn-stat: solveTime=0.021826
%%%mzn-stat: failures=195
%%%mzn-stat: solveTime=0.04901
%%%mzn-stat: failures=2248
%%%mzn-stat: solveTime=0.027557
%%%mzn-stat: failures=748
%%%mzn-stat: solveTime=0.409022
%%%mzn-stat: failures=38329
	Test naive model with N=14
%%%mzn-stat: solveTime=0.006114
%%%mzn-stat: failures=11
%%%mzn-stat: solveTime=0.006065
%%%mzn-stat: failures=11
%%%mzn-stat: solveTime=0.006108
%%%mzn-stat: failures=17
%%%mzn-stat: solveTime=0.007621
%%%mzn-stat: failures=12
%%%mzn-stat: solveTime=0.008842
%%%mzn-stat: failures=11
	Test dual model with N=14
%%%mzn-stat: solveTime=0.289796
%%%mzn-stat: failures=2065
%%%mzn-stat: solveTime=0.154943
%%%mzn-stat: failures=1514
%%%mzn-stat: solveTime=0.101732
%%%mzn-stat: failures=966
%%%mzn-stat: solveTime=0.14867
%%%mzn-stat: failures=917
%%%mzn-stat: solveTime=1.09238
%%%mzn-stat: failures=7741
	Test final model with N=14
%%%mzn-stat: solveTime=0.041032
%%%mzn-stat: failures=685
%%%mzn-stat: solveTime=0.139923
%%%mzn-stat: failures=1470
%%%mzn-stat: solveTime=0.112891
%%%mzn-stat: failures=1342
%%%mzn-stat: solveTime=0.032049
%%%mzn-stat: failures=485
%%%mzn-stat: solveTime=0.040876
%%%mzn-stat: failures=708
	Test naive model with N=15
%%%mzn-stat: solveTime=0.006142
%%%mzn-stat: failures=11
%%%mzn-stat: solveTime=0.00665
%%%mzn-stat: failures=12
%%%mzn-stat: solveTime=0.006727
%%%mzn-stat: failures=21
%%%mzn-stat: solveTime=0.00712
%%%mzn-stat: failures=12
%%%mzn-stat: solveTime=0.006566
%%%mzn-stat: failures=17
	Test dual model with N=15
%%%mzn-stat: solveTime=0.030766
%%%mzn-stat: failures=27
%%%mzn-stat: solveTime=0.030415
%%%mzn-stat: failures=27
%%%mzn-stat: solveTime=0.026451
%%%mzn-stat: failures=27
%%%mzn-stat: solveTime=0.084798
%%%mzn-stat: failures=809
%%%mzn-stat: solveTime=0.025616
%%%mzn-stat: failures=27
	Test final model with N=15
